RT is False
Default write of storage_offers_DA.csv just to have a file (but constraint should be inactive)
Reading model...
...model read.
creating competitive generators file...
...competitive generators recorded.
Loading data...
.. day-ahead data with real-time VRE data read.
Compiling instance...
...instance created.
Creating Offer Mitigation (model will solve as dispatch if TRUE)...
...storage offer mitigation file created
Converting model to MPEC...
...converted
NOTE: initial MIP solve with only storage competitive to get feasible solution
Solving...

Welcome to IBM(R) ILOG(R) CPLEX(R) Interactive Optimizer 12.9.0.0
  with Simplex, Mixed Integer & Barrier Optimizers
5725-A06 5725-A29 5724-Y48 5724-Y49 5724-Y54 5724-Y55 5655-Y21
Copyright IBM Corp. 1988, 2019.  All Rights Reserved.

Type 'help' for a list of available commands.
Type 'help' followed by a command name for more
information on commands.

CPLEX> Logfile 'cplex.log' closed.
Logfile 'C:\Users\llavin\Desktop\test826\logs\tmp8818niju.cplex.log' open.
CPLEX> New value for parallel optimization mode: -1
CPLEX> New value for mixed integer optimality gap tolerance: 0.01
CPLEX> New value for integrality tolerance: 1e-09
CPLEX> New value for feasibility tolerance: 0.001
CPLEX> New value for deterministic time limit in ticks: 75000
CPLEX> Problem 'C:\Users\llavin\Desktop\test826\logs\tmplo9ep8kb.pyomo.lp' read.
Read time = 0.25 sec. (14.73 ticks)
CPLEX> Problem name         : C:\Users\llavin\Desktop\test826\logs\tmplo9ep8kb.pyomo.lp
Objective sense      : Maximize
Variables            :   53805  [Nneg: 1,  Box: 22000,  Free: 4464,
                                 Binary: 27340]
Objective nonzeros   :    9022
Linear constraints   :  123205  [Less: 41346,  Greater: 59096,  Equal: 22763]
  Nonzeros           :  291746
  RHS nonzeros       :   67484

Variables            : Min LB: -5000.000        Max UB: 1000000.       
Objective nonzeros   : Min   : 0.01666667       Max   : 2500.000       
Linear constraints   :
  Nonzeros           : Min   : 0.01666667       Max   : 1000000.       
  RHS nonzeros       : Min   : 0.01666667       Max   : 1000000.       
CPLEX> CPXPARAM_Parallel                                -1
CPXPARAM_Simplex_Tolerances_Feasibility          0.001
CPXPARAM_DetTimeLimit                            75000
CPXPARAM_MIP_Tolerances_MIPGap                   0.01
CPXPARAM_MIP_Tolerances_Integrality              1.0000000000000001e-09
Tried aggregator 3 times.
MIP Presolve eliminated 88729 rows and 19050 columns.
MIP Presolve added 3361 rows and 0 columns.
MIP Presolve modified 24862 coefficients.
Aggregator did 12968 substitutions.
Reduced MIP has 24869 rows, 21228 columns, and 70947 nonzeros.
Reduced MIP has 8390 binaries, 0 generals, 0 SOSs, and 0 indicators.
Presolve time = 0.30 sec. (173.50 ticks)
Probing fixed 379 vars, tightened 2829 bounds.
Probing time = 1.22 sec. (880.36 ticks)
Tried aggregator 2 times.
MIP Presolve eliminated 856 rows and 764 columns.
MIP Presolve modified 2206 coefficients.
Aggregator did 43 substitutions.
Reduced MIP has 23970 rows, 20421 columns, and 68342 nonzeros.
Reduced MIP has 8008 binaries, 0 generals, 0 SOSs, and 0 indicators.
Presolve time = 0.09 sec. (67.67 ticks)
Probing time = 0.03 sec. (16.06 ticks)
Clique table members: 6475.
MIP emphasis: balance optimality and feasibility.
MIP search method: dynamic search.
Parallel mode: opportunistic, using up to 32 threads.
Root relaxation solution time = 0.47 sec. (604.92 ticks)

        Nodes                                         Cuts/
   Node  Left     Objective  IInf  Best Integer    Best Bound    ItCnt     Gap

      0     0     3758.2180   741                   3758.2180     6595         
      0     0     3757.3181     5                 Flowcuts: 6     6602         
      0     0     3752.5397     6                  MIRcuts: 1     6605         
      0     0     3752.5397     6                     Cuts: 3     6606         
      0     2     3752.5397     6                   3752.5397     6606         
Elapsed time = 9.00 sec. (5086.93 ticks, tree = 0.02 MB, solutions = 2)
*    34+   22                         3690.5410     3743.5729             1.44%
*   272+   74                         3737.6376     3743.5729             0.16%
    299   132     3398.2104     1     3737.6376     3743.5729     7824    0.16%

Cover cuts applied:  1
Flow cuts applied:  7
Mixed integer rounding cuts applied:  1

Root node processing (before b&c):
  Real time             =    7.44 sec. (5040.90 ticks)
Parallel b&c, 32 threads:
  Real time             =    2.17 sec. (325.25 ticks)
  Sync time (average)   =    0.54 sec.
  Wait time (average)   =    0.00 sec.
                          ------------
Total (root+branch&cut) =    9.61 sec. (5366.16 ticks)

Solution pool: 4 solutions saved.

MIP - Integer optimal, tolerance (0.01/1e-06):  Objective =  3.7376376375e+03
Current MIP best bound =  3.7435728657e+03 (gap = 5.93523, 0.16%)
Solution time =    9.64 sec.  Iterations = 9224  Nodes = 307 (3)
Deterministic time = 5366.31 ticks  (556.61 ticks/sec)

CPLEX> Incumbent solution written to file 'C:\Users\llavin\Desktop\test826\logs\tmpo8j0_fzg.cplex.sol'.
CPLEX> NOTE: no warmstart specified for MIP iteration, default behavior is true
NOTE: resolving with all competitive generators using storage-only solution to warmstart
Solving...

Welcome to IBM(R) ILOG(R) CPLEX(R) Interactive Optimizer 12.9.0.0
  with Simplex, Mixed Integer & Barrier Optimizers
5725-A06 5725-A29 5724-Y48 5724-Y49 5724-Y54 5724-Y55 5655-Y21
Copyright IBM Corp. 1988, 2019.  All Rights Reserved.

Type 'help' for a list of available commands.
Type 'help' followed by a command name for more
information on commands.

CPLEX> Logfile 'cplex.log' closed.
Logfile 'C:\Users\llavin\Desktop\test826\logs\tmphym29qct.cplex.log' open.
CPLEX> New value for parallel optimization mode: -1
CPLEX> New value for mixed integer optimality gap tolerance: 0.01
CPLEX> New value for integrality tolerance: 1e-09
CPLEX> New value for feasibility tolerance: 0.001
CPLEX> New value for deterministic time limit in ticks: 75000
CPLEX> Problem 'C:\Users\llavin\Desktop\test826\logs\tmpknvbg9u1.pyomo.lp' read.
Read time = 0.23 sec. (14.75 ticks)
CPLEX> MIP start file 'C:\Users\llavin\Desktop\test826\logs\tmp2890kof9.cplex.mst' read.
CPLEX> Problem name         : C:\Users\llavin\Desktop\test826\logs\tmpknvbg9u1.pyomo.lp
Objective sense      : Maximize
Variables            :   54525  [Nneg: 1,  Box: 22720,  Free: 4464,
                                 Binary: 27340]
Objective nonzeros   :    9742
Linear constraints   :  123205  [Less: 41346,  Greater: 59096,  Equal: 22763]
  Nonzeros           :  291746
  RHS nonzeros       :   67484

Variables            : Min LB: -5000.000        Max UB: 1000000.       
Objective nonzeros   : Min   : 0.01666667       Max   : 2500.000       
Linear constraints   :
  Nonzeros           : Min   : 0.01666667       Max   : 1000000.       
  RHS nonzeros       : Min   : 0.01666667       Max   : 1000000.       
CPLEX> CPXPARAM_Parallel                                -1
CPXPARAM_Simplex_Tolerances_Feasibility          0.001
CPXPARAM_DetTimeLimit                            75000
CPXPARAM_MIP_Tolerances_MIPGap                   0.01
CPXPARAM_MIP_Tolerances_Integrality              1.0000000000000001e-09
Warning:  No solution found from 1 MIP starts.
Retaining values of one MIP start for possible repair.
Tried aggregator 3 times.
MIP Presolve eliminated 88729 rows and 19770 columns.
MIP Presolve added 3361 rows and 0 columns.
MIP Presolve modified 24862 coefficients.
Aggregator did 12968 substitutions.
Reduced MIP has 24869 rows, 21228 columns, and 70947 nonzeros.
Reduced MIP has 8390 binaries, 0 generals, 0 SOSs, and 0 indicators.
Presolve time = 0.30 sec. (173.86 ticks)
Probing fixed 379 vars, tightened 2829 bounds.
Probing time = 1.19 sec. (880.36 ticks)
Tried aggregator 2 times.
MIP Presolve eliminated 856 rows and 764 columns.
MIP Presolve modified 2206 coefficients.
Aggregator did 43 substitutions.
Reduced MIP has 23970 rows, 20421 columns, and 68342 nonzeros.
Reduced MIP has 8008 binaries, 0 generals, 0 SOSs, and 0 indicators.
Presolve time = 0.11 sec. (67.67 ticks)
Probing time = 0.05 sec. (16.06 ticks)
Clique table members: 6475.
MIP emphasis: balance optimality and feasibility.
MIP search method: dynamic search.
Parallel mode: opportunistic, using up to 32 threads.
Root relaxation solution time = 0.48 sec. (604.92 ticks)

        Nodes                                         Cuts/
   Node  Left     Objective  IInf  Best Integer    Best Bound    ItCnt     Gap

      0     0     3758.2180   741                   3758.2180     6595         
      0     0     3757.3181     5                 Flowcuts: 6     6602         
      0     0     3752.5397     6                  MIRcuts: 1     6605         
      0     0     3752.5397     6                     Cuts: 3     6606         
Repair heuristic found nothing.
      0     2     3752.5397     6                   Covers: 1     6606         
Elapsed time = 9.27 sec. (5135.75 ticks, tree = 0.02 MB, solutions = 2)
*     5+   27                         3690.5410     3743.5729             1.44%
    192    26        cutoff           3690.5410     3743.3662     8174    1.43%
*   196    23      integral     0     3737.6376     3743.3662     8121    0.15%

Cover cuts applied:  3
Flow cuts applied:  7
Mixed integer rounding cuts applied:  1

Root node processing (before b&c):
  Real time             =    7.72 sec. (5090.11 ticks)
Parallel b&c, 32 threads:
  Real time             =    2.38 sec. (362.87 ticks)
  Sync time (average)   =    0.74 sec.
  Wait time (average)   =    0.00 sec.
                          ------------
Total (root+branch&cut) =   10.09 sec. (5452.98 ticks)

Solution pool: 4 solutions saved.

MIP - Integer optimal, tolerance (0.01/1e-06):  Objective =  3.7376376375e+03
Current MIP best bound =  3.7433662058e+03 (gap = 5.72857, 0.15%)
Solution time =   10.14 sec.  Iterations = 8204  Nodes = 206 (3)
Deterministic time = 5453.14 ticks  (537.78 ticks/sec)

CPLEX> Incumbent solution written to file 'C:\Users\llavin\Desktop\test826\logs\tmpd79c9yrz.cplex.sol'.
CPLEX> Exporting results... 
